p cnf 966 2481
51 -699 -1 0
-51 699 0
-51 1 0
52 -51 -3 0
-52 51 0
-52 3 0
53 -700 -4 0
-53 700 0
-53 4 0
54 -53 -701 0
-54 53 0
-54 701 0
55 -702 -703 0
-55 702 0
-55 703 0
56 -8 -7 0
-56 8 0
-56 7 0
57 -56 -704 0
-57 56 0
-57 704 0
58 -705 -55 0
-58 705 0
-58 55 0
59 -706 -10 0
-59 706 0
-59 10 0
60 -59 -12 0
-60 59 0
-60 12 0
61 -707 -58 0
-61 707 0
-61 58 0
62 -14 -708 0
-62 14 0
-62 708 0
63 -62 -709 0
-63 62 0
-63 709 0
64 -710 -61 0
-64 710 0
-64 61 0
65 -16 -8 0
-65 16 0
-65 8 0
66 -65 -711 0
-66 65 0
-66 711 0
67 -712 -64 0
-67 712 0
-67 64 0
68 -713 -714 0
-68 713 0
-68 714 0
69 -68 -17 0
-69 68 0
-69 17 0
70 -715 -67 0
-70 715 0
-70 67 0
71 -716 -16 0
-71 716 0
-71 16 0
72 -71 -4 0
-72 71 0
-72 4 0
73 -717 -70 0
-73 717 0
-73 70 0
74 -718 -719 0
-74 718 0
-74 719 0
75 -74 -720 0
-75 74 0
-75 720 0
76 -721 -73 0
-76 721 0
-76 73 0
77 -722 -22 0
-77 722 0
-77 22 0
78 -77 -25 0
-78 77 0
-78 25 0
79 -723 -76 0
-79 723 0
-79 76 0
80 -724 -722 0
-80 724 0
-80 722 0
81 -80 -700 0
-81 80 0
-81 700 0
82 -725 -79 0
-82 725 0
-82 79 0
83 -27 -26 0
-83 27 0
-83 26 0
84 -83 -726 0
-84 83 0
-84 726 0
85 -727 -82 0
-85 727 0
-85 82 0
86 -728 -12 0
-86 728 0
-86 12 0
87 -86 -729 0
-87 86 0
-87 729 0
88 -730 -85 0
-88 730 0
-88 85 0
89 -30 -13 0
-89 30 0
-89 13 0
90 -89 -731 0
-90 89 0
-90 731 0
91 -732 -88 0
-91 732 0
-91 88 0
92 -32 -31 0
-92 32 0
-92 31 0
93 -92 -701 0
-93 92 0
-93 701 0
94 -733 -91 0
-94 733 0
-94 91 0
95 -33 -16 0
-95 33 0
-95 16 0
96 -95 -34 0
-96 95 0
-96 34 0
97 -734 -94 0
-97 734 0
-97 94 0
98 -36 -35 0
-98 36 0
-98 35 0
99 -98 -37 0
-99 98 0
-99 37 0
100 -735 -97 0
-100 735 0
-100 97 0
101 -38 -9 0
-101 38 0
-101 9 0
102 -101 -736 0
-102 101 0
-102 736 0
103 -737 -100 0
-103 737 0
-103 100 0
104 -23 -738 0
-104 23 0
-104 738 0
105 -104 -704 0
-105 104 0
-105 704 0
106 -739 -103 0
-106 739 0
-106 103 0
107 -13 -740 0
-107 13 0
-107 740 0
108 -107 -724 0
-108 107 0
-108 724 0
109 -741 -106 0
-109 741 0
-109 106 0
110 -742 -18 0
-110 742 0
-110 18 0
111 -110 -15 0
-111 110 0
-111 15 0
112 -743 -109 0
-112 743 0
-112 109 0
113 -32 -24 0
-113 32 0
-113 24 0
114 -113 -729 0
-114 113 0
-114 729 0
115 -744 -112 0
-115 744 0
-115 112 0
116 -745 -746 0
-116 745 0
-116 746 0
117 -116 -709 0
-117 116 0
-117 709 0
118 -747 -115 0
-118 747 0
-118 115 0
119 -748 -746 0
-119 748 0
-119 746 0
120 -119 -749 0
-120 119 0
-120 749 0
121 -750 -118 0
-121 750 0
-121 118 0
122 -32 -2 0
-122 32 0
-122 2 0
123 -122 -751 0
-123 122 0
-123 751 0
124 -752 -121 0
-124 752 0
-124 121 0
125 -34 -720 0
-125 34 0
-125 720 0
126 -125 -17 0
-126 125 0
-126 17 0
127 -753 -124 0
-127 753 0
-127 124 0
128 -754 -716 0
-128 754 0
-128 716 0
129 -128 -30 0
-129 128 0
-129 30 0
130 -755 -127 0
-130 755 0
-130 127 0
131 -42 -756 0
-131 42 0
-131 756 0
132 -131 -4 0
-132 131 0
-132 4 0
133 -757 -130 0
-133 757 0
-133 130 0
134 -20 -4 0
-134 20 0
-134 4 0
135 -134 -706 0
-135 134 0
-135 706 0
136 -758 -133 0
-136 758 0
-136 133 0
137 -759 -4 0
-137 759 0
-137 4 0
138 -137 -706 0
-138 137 0
-138 706 0
139 -760 -136 0
-139 760 0
-139 136 0
140 -39 -754 0
-140 39 0
-140 754 0
141 -140 -34 0
-141 140 0
-141 34 0
142 -761 -139 0
-142 761 0
-142 139 0
143 -43 -7 0
-143 43 0
-143 7 0
144 -143 -19 0
-144 143 0
-144 19 0
145 -762 -142 0
-145 762 0
-145 142 0
146 -759 -728 0
-146 759 0
-146 728 0
147 -146 -726 0
-147 146 0
-147 726 0
148 -763 -145 0
-148 763 0
-148 145 0
149 -13 -11 0
-149 13 0
-149 11 0
150 -149 -37 0
-150 149 0
-150 37 0
151 -764 -148 0
-151 764 0
-151 148 0
152 -765 -23 0
-152 765 0
-152 23 0
153 -152 -736 0
-153 152 0
-153 736 0
154 -766 -151 0
-154 766 0
-154 151 0
155 -754 -22 0
-155 754 0
-155 22 0
156 -155 -40 0
-156 155 0
-156 40 0
157 -767 -154 0
-157 767 0
-157 154 0
158 -42 -722 0
-158 42 0
-158 722 0
159 -158 -768 0
-159 158 0
-159 768 0
160 -769 -157 0
-160 769 0
-160 157 0
161 -45 -4 0
-161 45 0
-161 4 0
162 -161 -749 0
-162 161 0
-162 749 0
163 -770 -160 0
-163 770 0
-163 160 0
164 -765 -27 0
-164 765 0
-164 27 0
165 -164 -11 0
-165 164 0
-165 11 0
166 -771 -163 0
-166 771 0
-166 163 0
167 -738 -2 0
-167 738 0
-167 2 0
168 -167 -701 0
-168 167 0
-168 701 0
169 -772 -166 0
-169 772 0
-169 166 0
170 -773 -21 0
-170 773 0
-170 21 0
171 -170 -706 0
-171 170 0
-171 706 0
172 -774 -169 0
-172 774 0
-172 169 0
173 -44 -21 0
-173 44 0
-173 21 0
174 -173 -46 0
-174 173 0
-174 46 0
175 -775 -172 0
-175 775 0
-175 172 0
176 -30 -8 0
-176 30 0
-176 8 0
177 -176 -776 0
-177 176 0
-177 776 0
178 -777 -175 0
-178 777 0
-178 175 0
179 -716 -17 0
-179 716 0
-179 17 0
180 -179 -700 0
-180 179 0
-180 700 0
181 -778 -178 0
-181 778 0
-181 178 0
182 -45 -716 0
-182 45 0
-182 716 0
183 -182 -701 0
-183 182 0
-183 701 0
184 -779 -181 0
-184 779 0
-184 181 0
185 -41 -699 0
-185 41 0
-185 699 0
186 -185 -780 0
-186 185 0
-186 780 0
187 -781 -184 0
-187 781 0
-187 184 0
188 -745 -782 0
-188 745 0
-188 782 0
189 -188 -37 0
-189 188 0
-189 37 0
190 -783 -187 0
-190 783 0
-190 187 0
191 -24 -713 0
-191 24 0
-191 713 0
192 -191 -726 0
-192 191 0
-192 726 0
193 -784 -190 0
-193 784 0
-193 190 0
194 -714 -704 0
-194 714 0
-194 704 0
195 -194 -30 0
-195 194 0
-195 30 0
196 -785 -193 0
-196 785 0
-196 193 0
197 -24 -714 0
-197 24 0
-197 714 0
198 -197 -35 0
-198 197 0
-198 35 0
199 -786 -196 0
-199 786 0
-199 196 0
200 -36 -17 0
-200 36 0
-200 17 0
201 -200 -46 0
-201 200 0
-201 46 0
202 -787 -199 0
-202 787 0
-202 199 0
203 -788 -756 0
-203 788 0
-203 756 0
204 -203 -42 0
-204 203 0
-204 42 0
205 -789 -202 0
-205 789 0
-205 202 0
206 -708 -1 0
-206 708 0
-206 1 0
207 -206 -768 0
-207 206 0
-207 768 0
208 -790 -205 0
-208 790 0
-208 205 0
209 -32 -716 0
-209 32 0
-209 716 0
210 -209 -709 0
-210 209 0
-210 709 0
211 -791 -208 0
-211 791 0
-211 208 0
212 -31 -708 0
-212 31 0
-212 708 0
213 -212 -701 0
-213 212 0
-213 701 0
214 -792 -211 0
-214 792 0
-214 211 0
215 -782 -21 0
-215 782 0
-215 21 0
216 -215 -793 0
-216 215 0
-216 793 0
217 -794 -214 0
-217 794 0
-217 214 0
218 -45 -722 0
-218 45 0
-218 722 0
219 -218 -780 0
-219 218 0
-219 780 0
220 -795 -217 0
-220 795 0
-220 217 0
221 -35 -34 0
-221 35 0
-221 34 0
222 -221 -776 0
-222 221 0
-222 776 0
223 -796 -220 0
-223 796 0
-223 220 0
224 -38 -33 0
-224 38 0
-224 33 0
225 -224 -5 0
-225 224 0
-225 5 0
226 -797 -223 0
-226 797 0
-226 223 0
227 -48 -738 0
-227 48 0
-227 738 0
228 -227 -34 0
-228 227 0
-228 34 0
229 -798 -226 0
-229 798 0
-229 226 0
230 -26 -740 0
-230 26 0
-230 740 0
231 -230 -47 0
-231 230 0
-231 47 0
232 -799 -229 0
-232 799 0
-232 229 0
233 -42 -742 0
-233 42 0
-233 742 0
234 -233 -726 0
-234 233 0
-234 726 0
235 -800 -232 0
-235 800 0
-235 232 0
236 -788 -18 0
-236 788 0
-236 18 0
237 -236 -17 0
-237 236 0
-237 17 0
238 -801 -235 0
-238 801 0
-238 235 0
239 -29 -22 0
-239 29 0
-239 22 0
240 -239 -782 0
-240 239 0
-240 782 0
241 -802 -238 0
-241 802 0
-241 238 0
242 -716 -3 0
-242 716 0
-242 3 0
243 -242 -700 0
-243 242 0
-243 700 0
244 -803 -241 0
-244 803 0
-244 241 0
245 -804 -728 0
-245 804 0
-245 728 0
246 -245 -4 0
-246 245 0
-246 4 0
247 -805 -244 0
-247 805 0
-247 244 0
248 -182 -28 0
-248 182 0
-248 28 0
249 -806 -247 0
-249 806 0
-249 247 0
250 -745 -699 0
-250 745 0
-250 699 0
251 -250 -34 0
-251 250 0
-251 34 0
252 -807 -249 0
-252 807 0
-252 249 0
253 -44 -740 0
-253 44 0
-253 740 0
254 -253 -34 0
-254 253 0
-254 34 0
255 -808 -252 0
-255 808 0
-255 252 0
256 -742 -722 0
-256 742 0
-256 722 0
257 -256 -699 0
-257 256 0
-257 699 0
258 -809 -255 0
-258 809 0
-258 255 0
259 -24 -11 0
-259 24 0
-259 11 0
260 -259 -780 0
-260 259 0
-260 780 0
261 -810 -258 0
-261 810 0
-261 258 0
262 -811 -10 0
-262 811 0
-262 10 0
263 -262 -12 0
-263 262 0
-263 12 0
264 -812 -261 0
-264 812 0
-264 261 0
265 -25 -1 0
-265 25 0
-265 1 0
266 -265 -46 0
-266 265 0
-266 46 0
267 -813 -264 0
-267 813 0
-267 264 0
268 -742 -713 0
-268 742 0
-268 713 0
269 -268 -811 0
-269 268 0
-269 811 0
270 -814 -267 0
-270 814 0
-270 267 0
271 -44 -815 0
-271 44 0
-271 815 0
272 -271 -700 0
-272 271 0
-272 700 0
273 -816 -270 0
-273 816 0
-273 270 0
274 -742 -714 0
-274 742 0
-274 714 0
275 -274 -1 0
-275 274 0
-275 1 0
276 -817 -273 0
-276 817 0
-276 273 0
277 -39 -740 0
-277 39 0
-277 740 0
278 -277 -1 0
-278 277 0
-278 1 0
279 -818 -276 0
-279 818 0
-279 276 0
280 -782 -18 0
-280 782 0
-280 18 0
281 -280 -26 0
-281 280 0
-281 26 0
282 -819 -279 0
-282 819 0
-282 279 0
283 -776 -726 0
-283 776 0
-283 726 0
284 -283 -751 0
-284 283 0
-284 751 0
285 -820 -282 0
-285 820 0
-285 282 0
286 -30 -18 0
-286 30 0
-286 18 0
287 -286 -37 0
-287 286 0
-287 37 0
288 -821 -285 0
-288 821 0
-288 285 0
289 -20 -2 0
-289 20 0
-289 2 0
290 -289 -11 0
-290 289 0
-290 11 0
291 -822 -288 0
-291 822 0
-291 288 0
292 -811 -815 0
-292 811 0
-292 815 0
293 -292 -14 0
-293 292 0
-293 14 0
294 -823 -291 0
-294 823 0
-294 291 0
295 -746 -716 0
-295 746 0
-295 716 0
296 -295 -811 0
-296 295 0
-296 811 0
297 -824 -294 0
-297 824 0
-297 294 0
298 -716 -7 0
-298 716 0
-298 7 0
299 -298 -701 0
-299 298 0
-299 701 0
300 -825 -297 0
-300 825 0
-300 297 0
301 -738 -9 0
-301 738 0
-301 9 0
302 -301 -826 0
-302 301 0
-302 826 0
303 -827 -300 0
-303 827 0
-303 300 0
304 -748 -21 0
-304 748 0
-304 21 0
305 -304 -49 0
-305 304 0
-305 49 0
306 -828 -303 0
-306 828 0
-306 303 0
307 -738 -736 0
-307 738 0
-307 736 0
308 -307 -701 0
-308 307 0
-308 701 0
309 -829 -306 0
-309 829 0
-309 306 0
310 -765 -9 0
-310 765 0
-310 9 0
311 -310 -15 0
-311 310 0
-311 15 0
312 -830 -309 0
-312 830 0
-312 309 0
313 -38 -36 0
-313 38 0
-313 36 0
314 -313 -826 0
-314 313 0
-314 826 0
315 -831 -312 0
-315 831 0
-315 312 0
316 -33 -832 0
-316 33 0
-316 832 0
317 -316 -765 0
-317 316 0
-317 765 0
318 -833 -315 0
-318 833 0
-318 315 0
319 -29 -26 0
-319 29 0
-319 26 0
320 -319 -40 0
-320 319 0
-320 40 0
321 -834 -318 0
-321 834 0
-321 318 0
322 -716 -9 0
-322 716 0
-322 9 0
323 -322 -700 0
-323 322 0
-323 700 0
324 -835 -321 0
-324 835 0
-324 321 0
325 -782 -722 0
-325 782 0
-325 722 0
326 -325 -836 0
-326 325 0
-326 836 0
327 -837 -324 0
-327 837 0
-327 324 0
328 -62 -47 0
-328 62 0
-328 47 0
329 -838 -327 0
-329 838 0
-329 327 0
330 -41 -30 0
-330 41 0
-330 30 0
331 -330 -711 0
-331 330 0
-331 711 0
332 -839 -329 0
-332 839 0
-332 329 0
333 -42 -33 0
-333 42 0
-333 33 0
334 -333 -12 0
-334 333 0
-334 12 0
335 -840 -332 0
-335 840 0
-335 332 0
336 -765 -7 0
-336 765 0
-336 7 0
337 -336 -11 0
-337 336 0
-337 11 0
338 -841 -335 0
-338 841 0
-338 335 0
339 -793 -718 0
-339 793 0
-339 718 0
340 -339 -14 0
-340 339 0
-340 14 0
341 -842 -338 0
-341 842 0
-341 338 0
342 -22 -719 0
-342 22 0
-342 719 0
343 -342 -756 0
-343 342 0
-343 756 0
344 -843 -341 0
-344 843 0
-344 341 0
345 -43 -20 0
-345 43 0
-345 20 0
346 -345 -32 0
-346 345 0
-346 32 0
347 -844 -344 0
-347 844 0
-347 344 0
348 -756 -1 0
-348 756 0
-348 1 0
349 -348 -782 0
-349 348 0
-349 782 0
350 -845 -347 0
-350 845 0
-350 347 0
351 -713 -18 0
-351 713 0
-351 18 0
352 -351 -749 0
-352 351 0
-352 749 0
353 -846 -350 0
-353 846 0
-353 350 0
354 -847 -11 0
-354 847 0
-354 11 0
355 -354 -12 0
-355 354 0
-355 12 0
356 -848 -353 0
-356 848 0
-356 353 0
357 -768 -832 0
-357 768 0
-357 832 0
358 -357 -776 0
-358 357 0
-358 776 0
359 -849 -356 0
-359 849 0
-359 356 0
360 -35 -21 0
-360 35 0
-360 21 0
361 -360 -836 0
-361 360 0
-361 836 0
362 -850 -359 0
-362 850 0
-362 359 0
363 -8 -699 0
-363 8 0
-363 699 0
364 -363 -47 0
-364 363 0
-364 47 0
365 -851 -362 0
-365 851 0
-365 362 0
366 -815 -26 0
-366 815 0
-366 26 0
367 -366 -37 0
-367 366 0
-367 37 0
368 -852 -365 0
-368 852 0
-368 365 0
369 -811 -44 0
-369 811 0
-369 44 0
370 -369 -14 0
-370 369 0
-370 14 0
371 -853 -368 0
-371 853 0
-371 368 0
372 -773 -714 0
-372 773 0
-372 714 0
373 -372 -804 0
-373 372 0
-373 804 0
374 -854 -371 0
-374 854 0
-374 371 0
375 -724 -718 0
-375 724 0
-375 718 0
376 -375 -765 0
-376 375 0
-376 765 0
377 -855 -374 0
-377 855 0
-377 374 0
378 -716 -2 0
-378 716 0
-378 2 0
379 -378 -700 0
-379 378 0
-379 700 0
380 -856 -377 0
-380 856 0
-380 377 0
381 -720 -738 0
-381 720 0
-381 738 0
382 -381 -5 0
-382 381 0
-382 5 0
383 -857 -380 0
-383 857 0
-383 380 0
384 -746 -23 0
-384 746 0
-384 23 0
385 -384 -30 0
-385 384 0
-385 30 0
386 -858 -383 0
-386 858 0
-386 383 0
387 -847 -10 0
-387 847 0
-387 10 0
388 -387 -736 0
-388 387 0
-388 736 0
389 -859 -386 0
-389 859 0
-389 386 0
390 -718 -738 0
-390 718 0
-390 738 0
391 -390 -42 0
-391 390 0
-391 42 0
392 -860 -389 0
-392 860 0
-392 389 0
393 -31 -26 0
-393 31 0
-393 26 0
394 -393 -729 0
-394 393 0
-394 729 0
395 -861 -392 0
-395 861 0
-395 392 0
396 -32 -773 0
-396 32 0
-396 773 0
397 -396 -709 0
-397 396 0
-397 709 0
398 -862 -395 0
-398 862 0
-398 395 0
399 -49 -815 0
-399 49 0
-399 815 0
400 -399 -12 0
-400 399 0
-400 12 0
401 -863 -398 0
-401 863 0
-401 398 0
402 -826 -1 0
-402 826 0
-402 1 0
403 -402 -726 0
-403 402 0
-403 726 0
404 -864 -401 0
-404 864 0
-404 401 0
405 -36 -9 0
-405 36 0
-405 9 0
406 -405 -729 0
-406 405 0
-406 729 0
407 -865 -404 0
-407 865 0
-407 404 0
408 -26 -5 0
-408 26 0
-408 5 0
409 -408 -37 0
-409 408 0
-409 37 0
410 -866 -407 0
-410 866 0
-410 407 0
411 -811 -33 0
-411 811 0
-411 33 0
412 -411 -17 0
-412 411 0
-412 17 0
413 -867 -410 0
-413 867 0
-413 410 0
414 -43 -31 0
-414 43 0
-414 31 0
415 -414 -699 0
-415 414 0
-415 699 0
416 -868 -413 0
-416 868 0
-416 413 0
417 -45 -42 0
-417 45 0
-417 42 0
418 -417 -869 0
-418 417 0
-418 869 0
419 -870 -416 0
-419 870 0
-419 416 0
420 -869 -39 0
-420 869 0
-420 39 0
421 -420 -731 0
-421 420 0
-421 731 0
422 -871 -419 0
-422 871 0
-422 419 0
423 -25 -738 0
-423 25 0
-423 738 0
424 -423 -759 0
-424 423 0
-424 759 0
425 -872 -422 0
-425 872 0
-425 422 0
426 -27 -21 0
-426 27 0
-426 21 0
427 -426 -768 0
-427 426 0
-427 768 0
428 -873 -425 0
-428 873 0
-428 425 0
429 -874 -44 0
-429 874 0
-429 44 0
430 -429 -12 0
-430 429 0
-430 12 0
431 -875 -428 0
-431 875 0
-431 428 0
432 -40 -16 0
-432 40 0
-432 16 0
433 -432 -711 0
-433 432 0
-433 711 0
434 -876 -431 0
-434 876 0
-434 431 0
435 -42 -21 0
-435 42 0
-435 21 0
436 -435 -3 0
-436 435 0
-436 3 0
437 -877 -434 0
-437 877 0
-437 434 0
438 -718 -12 0
-438 718 0
-438 12 0
439 -438 -751 0
-439 438 0
-439 751 0
440 -878 -437 0
-440 878 0
-440 437 0
441 -815 -19 0
-441 815 0
-441 19 0
442 -441 -11 0
-442 441 0
-442 11 0
443 -879 -440 0
-443 879 0
-443 440 0
444 -19 -832 0
-444 19 0
-444 832 0
445 -444 -34 0
-445 444 0
-445 34 0
446 -880 -443 0
-446 880 0
-446 443 0
447 -811 -847 0
-447 811 0
-447 847 0
448 -447 -5 0
-448 447 0
-448 5 0
449 -881 -446 0
-449 881 0
-449 446 0
450 -768 -756 0
-450 768 0
-450 756 0
451 -450 -776 0
-451 450 0
-451 776 0
452 -882 -449 0
-452 882 0
-452 449 0
453 -773 -24 0
-453 773 0
-453 24 0
454 -453 -14 0
-454 453 0
-454 14 0
455 -883 -452 0
-455 883 0
-455 452 0
456 -782 -746 0
-456 782 0
-456 746 0
457 -456 -15 0
-457 456 0
-457 15 0
458 -884 -455 0
-458 884 0
-458 455 0
459 -29 -20 0
-459 29 0
-459 20 0
460 -459 -745 0
-460 459 0
-460 745 0
461 -885 -458 0
-461 885 0
-461 458 0
462 -718 -19 0
-462 718 0
-462 19 0
463 -462 -776 0
-463 462 0
-463 776 0
464 -886 -461 0
-464 886 0
-464 461 0
465 -782 -34 0
-465 782 0
-465 34 0
466 -465 -46 0
-466 465 0
-466 46 0
467 -887 -464 0
-467 887 0
-467 464 0
468 -32 -26 0
-468 32 0
-468 26 0
469 -468 -28 0
-469 468 0
-469 28 0
470 -888 -467 0
-470 888 0
-470 467 0
471 -726 -836 0
-471 726 0
-471 836 0
472 -471 -776 0
-472 471 0
-472 776 0
473 -889 -470 0
-473 889 0
-473 470 0
474 -41 -773 0
-474 41 0
-474 773 0
475 -474 -716 0
-475 474 0
-475 716 0
476 -890 -473 0
-476 890 0
-476 473 0
477 -754 -9 0
-477 754 0
-477 9 0
478 -477 -14 0
-478 477 0
-478 14 0
479 -891 -476 0
-479 891 0
-479 476 0
480 -759 -23 0
-480 759 0
-480 23 0
481 -480 -736 0
-481 480 0
-481 736 0
482 -892 -479 0
-482 892 0
-482 479 0
483 -869 -24 0
-483 869 0
-483 24 0
484 -483 -30 0
-484 483 0
-484 30 0
485 -893 -482 0
-485 893 0
-485 482 0
486 -182 -11 0
-486 182 0
-486 11 0
487 -894 -485 0
-487 894 0
-487 485 0
488 -24 -10 0
-488 24 0
-488 10 0
489 -488 -701 0
-489 488 0
-489 701 0
490 -895 -487 0
-490 895 0
-490 487 0
491 -719 -10 0
-491 719 0
-491 10 0
492 -491 -20 0
-492 491 0
-492 20 0
493 -896 -490 0
-493 896 0
-493 490 0
494 -42 -4 0
-494 42 0
-494 4 0
495 -494 -32 0
-495 494 0
-495 32 0
496 -897 -493 0
-496 897 0
-496 493 0
497 -43 -36 0
-497 43 0
-497 36 0
498 -497 -699 0
-498 497 0
-498 699 0
499 -898 -496 0
-499 898 0
-499 496 0
500 -45 -756 0
-500 45 0
-500 756 0
501 -500 -754 0
-501 500 0
-501 754 0
502 -899 -499 0
-502 899 0
-502 499 0
503 -874 -804 0
-503 874 0
-503 804 0
504 -503 -704 0
-504 503 0
-504 704 0
505 -900 -502 0
-505 900 0
-505 502 0
506 -36 -10 0
-506 36 0
-506 10 0
507 -506 -2 0
-507 506 0
-507 2 0
508 -901 -505 0
-508 901 0
-508 505 0
509 -902 -716 0
-509 902 0
-509 716 0
510 -509 -13 0
-510 509 0
-510 13 0
511 -903 -508 0
-511 903 0
-511 508 0
512 -41 -754 0
-512 41 0
-512 754 0
513 -512 -704 0
-513 512 0
-513 704 0
514 -904 -511 0
-514 904 0
-514 511 0
515 -20 -1 0
-515 20 0
-515 1 0
516 -515 -729 0
-516 515 0
-516 729 0
517 -905 -514 0
-517 905 0
-517 514 0
518 -874 -25 0
-518 874 0
-518 25 0
519 -518 -7 0
-519 518 0
-519 7 0
520 -906 -517 0
-520 906 0
-520 517 0
521 -745 -29 0
-521 745 0
-521 29 0
522 -521 -709 0
-522 521 0
-522 709 0
523 -907 -520 0
-523 907 0
-523 520 0
524 -826 -728 0
-524 826 0
-524 728 0
525 -524 -706 0
-525 524 0
-525 706 0
526 -908 -523 0
-526 908 0
-526 523 0
527 -23 -17 0
-527 23 0
-527 17 0
528 -527 -701 0
-528 527 0
-528 701 0
529 -909 -526 0
-529 909 0
-529 526 0
530 -42 -738 0
-530 42 0
-530 738 0
531 -530 -19 0
-531 530 0
-531 19 0
532 -910 -529 0
-532 910 0
-532 529 0
533 -31 -25 0
-533 31 0
-533 25 0
534 -533 -48 0
-534 533 0
-534 48 0
535 -911 -532 0
-535 911 0
-535 532 0
536 -38 -722 0
-536 38 0
-536 722 0
537 -536 -34 0
-537 536 0
-537 34 0
538 -912 -535 0
-538 912 0
-538 535 0
539 -36 -738 0
-539 36 0
-539 738 0
540 -539 -8 0
-540 539 0
-540 8 0
541 -913 -538 0
-541 913 0
-541 538 0
542 -34 -24 0
-542 34 0
-542 24 0
543 -542 -17 0
-543 542 0
-543 17 0
544 -914 -541 0
-544 914 0
-544 541 0
545 -396 -780 0
-545 396 0
-545 780 0
546 -915 -544 0
-546 915 0
-546 544 0
547 -16 -15 0
-547 16 0
-547 15 0
548 -547 -5 0
-548 547 0
-548 5 0
549 -916 -546 0
-549 916 0
-549 546 0
550 -298 -726 0
-550 298 0
-550 726 0
551 -917 -549 0
-551 917 0
-551 549 0
552 -43 -26 0
-552 43 0
-552 26 0
553 -552 -28 0
-553 552 0
-553 28 0
554 -918 -551 0
-554 918 0
-554 551 0
555 -30 -704 0
-555 30 0
-555 704 0
556 -555 -28 0
-556 555 0
-556 28 0
557 -919 -554 0
-557 919 0
-557 554 0
558 -45 -24 0
-558 45 0
-558 24 0
559 -558 -44 0
-559 558 0
-559 44 0
560 -920 -557 0
-560 920 0
-560 557 0
561 -811 -836 0
-561 811 0
-561 836 0
562 -561 -3 0
-562 561 0
-562 3 0
563 -921 -560 0
-563 921 0
-563 560 0
564 -19 -704 0
-564 19 0
-564 704 0
565 -564 -731 0
-565 564 0
-565 731 0
566 -922 -563 0
-566 922 0
-566 563 0
567 -39 -3 0
-567 39 0
-567 3 0
568 -567 -47 0
-568 567 0
-568 47 0
569 -923 -566 0
-569 923 0
-569 566 0
570 -29 -1 0
-570 29 0
-570 1 0
571 -570 -826 0
-571 570 0
-571 826 0
572 -924 -569 0
-572 924 0
-572 569 0
573 -902 -22 0
-573 902 0
-573 22 0
574 -573 -832 0
-574 573 0
-574 832 0
575 -925 -572 0
-575 925 0
-575 572 0
576 -38 -26 0
-576 38 0
-576 26 0
577 -576 -5 0
-577 576 0
-577 5 0
578 -926 -575 0
-578 926 0
-578 575 0
579 -31 -16 0
-579 31 0
-579 16 0
580 -579 -9 0
-580 579 0
-580 9 0
581 -927 -578 0
-581 927 0
-581 578 0
582 -704 -836 0
-582 704 0
-582 836 0
583 -582 -3 0
-583 582 0
-583 3 0
584 -928 -581 0
-584 928 0
-584 581 0
585 -35 -31 0
-585 35 0
-585 31 0
586 -585 -720 0
-586 585 0
-586 720 0
587 -929 -584 0
-587 929 0
-587 584 0
588 -754 -27 0
-588 754 0
-588 27 0
589 -588 -776 0
-589 588 0
-589 776 0
590 -930 -587 0
-590 930 0
-590 587 0
591 -18 -16 0
-591 18 0
-591 16 0
592 -591 -832 0
-592 591 0
-592 832 0
593 -931 -590 0
-593 931 0
-593 590 0
594 -18 -738 0
-594 18 0
-594 738 0
595 -594 -708 0
-595 594 0
-595 708 0
596 -932 -593 0
-596 932 0
-596 593 0
597 -36 -826 0
-597 36 0
-597 826 0
598 -597 -37 0
-598 597 0
-598 37 0
599 -933 -596 0
-599 933 0
-599 596 0
600 -50 -7 0
-600 50 0
-600 7 0
601 -600 -14 0
-601 600 0
-601 14 0
602 -934 -599 0
-602 934 0
-602 599 0
603 -44 -731 0
-603 44 0
-603 731 0
604 -603 -46 0
-604 603 0
-604 46 0
605 -935 -602 0
-605 935 0
-605 602 0
606 -15 -699 0
-606 15 0
-606 699 0
607 -606 -37 0
-607 606 0
-607 37 0
608 -936 -605 0
-608 936 0
-608 605 0
609 -874 -788 0
-609 874 0
-609 788 0
610 -609 -37 0
-610 609 0
-610 37 0
611 -937 -608 0
-611 937 0
-611 608 0
612 -902 -728 0
-612 902 0
-612 728 0
613 -612 -700 0
-613 612 0
-613 700 0
614 -938 -611 0
-614 938 0
-614 611 0
615 -27 -16 0
-615 27 0
-615 16 0
616 -615 -704 0
-616 615 0
-616 704 0
617 -939 -614 0
-617 939 0
-617 614 0
618 -754 -719 0
-618 754 0
-618 719 0
619 -618 -4 0
-619 618 0
-619 4 0
620 -940 -617 0
-620 940 0
-620 617 0
621 -35 -788 0
-621 35 0
-621 788 0
622 -621 -15 0
-622 621 0
-622 15 0
623 -941 -620 0
-623 941 0
-623 620 0
624 -722 -719 0
-624 722 0
-624 719 0
625 -624 -46 0
-625 624 0
-625 46 0
626 -942 -623 0
-626 942 0
-626 623 0
627 -714 -9 0
-627 714 0
-627 9 0
628 -627 -706 0
-628 627 0
-628 706 0
629 -943 -626 0
-629 943 0
-629 626 0
630 -776 -24 0
-630 776 0
-630 24 0
631 -630 -701 0
-631 630 0
-631 701 0
632 -944 -629 0
-632 944 0
-632 629 0
633 -742 -756 0
-633 742 0
-633 756 0
634 -633 -699 0
-634 633 0
-634 699 0
635 -945 -632 0
-635 945 0
-635 632 0
636 -748 -740 0
-636 748 0
-636 740 0
637 -636 -34 0
-637 636 0
-637 34 0
638 -946 -635 0
-638 946 0
-638 635 0
639 -38 -10 0
-639 38 0
-639 10 0
640 -639 -17 0
-640 639 0
-640 17 0
641 -947 -638 0
-641 947 0
-641 638 0
642 -718 -704 0
-642 718 0
-642 704 0
643 -642 -48 0
-643 642 0
-643 48 0
644 -948 -641 0
-644 948 0
-644 641 0
645 -49 -41 0
-645 49 0
-645 41 0
646 -645 -32 0
-646 645 0
-646 32 0
647 -949 -644 0
-647 949 0
-647 644 0
648 -836 -1 0
-648 836 0
-648 1 0
649 -648 -729 0
-649 648 0
-649 729 0
650 -950 -647 0
-650 950 0
-650 647 0
651 -32 -9 0
-651 32 0
-651 9 0
652 -651 -780 0
-652 651 0
-652 780 0
653 -951 -650 0
-653 951 0
-653 650 0
654 -23 -716 0
-654 23 0
-654 716 0
655 -654 -765 0
-655 654 0
-655 765 0
656 -952 -653 0
-656 952 0
-656 653 0
657 -742 -20 0
-657 742 0
-657 20 0
658 -657 -869 0
-658 657 0
-658 869 0
659 -953 -656 0
-659 953 0
-659 656 0
660 -731 -7 0
-660 731 0
-660 7 0
661 -660 -3 0
-661 660 0
-661 3 0
662 -954 -659 0
-662 954 0
-662 659 0
663 -46 -38 0
-663 46 0
-663 38 0
664 -663 -28 0
-664 663 0
-664 28 0
665 -955 -662 0
-665 955 0
-665 662 0
666 -44 -754 0
-666 44 0
-666 754 0
667 -666 -736 0
-667 666 0
-667 736 0
668 -956 -665 0
-668 956 0
-668 665 0
669 -811 -719 0
-669 811 0
-669 719 0
670 -669 -28 0
-670 669 0
-670 28 0
671 -957 -668 0
-671 957 0
-671 668 0
672 -48 -746 0
-672 48 0
-672 746 0
673 -672 -15 0
-673 672 0
-673 15 0
674 -958 -671 0
-674 958 0
-674 671 0
675 -24 -740 0
-675 24 0
-675 740 0
676 -675 -5 0
-676 675 0
-676 5 0
677 -959 -674 0
-677 959 0
-677 674 0
678 -724 -25 0
-678 724 0
-678 25 0
679 -678 -32 0
-679 678 0
-679 32 0
680 -960 -677 0
-680 960 0
-680 677 0
681 -793 -41 0
-681 793 0
-681 41 0
682 -681 -14 0
-682 681 0
-682 14 0
683 -961 -680 0
-683 961 0
-683 680 0
684 -768 -729 0
-684 768 0
-684 729 0
685 -684 -701 0
-685 684 0
-685 701 0
686 -962 -683 0
-686 962 0
-686 683 0
687 -782 -19 0
-687 782 0
-687 19 0
688 -687 -869 0
-688 687 0
-688 869 0
689 -963 -686 0
-689 963 0
-689 686 0
690 -902 -748 0
-690 902 0
-690 748 0
691 -690 -3 0
-691 690 0
-691 3 0
692 -964 -689 0
-692 964 0
-692 689 0
693 -17 -740 0
-693 17 0
-693 740 0
694 -693 -780 0
-694 693 0
-694 780 0
695 -965 -692 0
-695 965 0
-695 692 0
696 -874 -10 0
-696 874 0
-696 10 0
697 -696 -33 0
-697 696 0
-697 33 0
698 -966 -695 0
-698 966 0
-698 695 0
-699 -2 0
699 2 0
-700 -5 0
700 5 0
-701 -6 0
701 6 0
-702 -54 0
702 54 0
-703 -52 0
703 52 0
-704 -9 0
704 9 0
-705 -57 0
705 57 0
-706 -11 0
706 11 0
-707 -60 0
707 60 0
-708 -13 0
708 13 0
-709 -15 0
709 15 0
-710 -63 0
710 63 0
-711 -17 0
711 17 0
-712 -66 0
712 66 0
-713 -19 0
713 19 0
-714 -18 0
714 18 0
-715 -69 0
715 69 0
-716 -20 0
716 20 0
-717 -72 0
717 72 0
-718 -22 0
718 22 0
-719 -21 0
719 21 0
-720 -23 0
720 23 0
-721 -75 0
721 75 0
-722 -24 0
722 24 0
-723 -78 0
723 78 0
-724 -26 0
724 26 0
-725 -81 0
725 81 0
-726 -28 0
726 28 0
-727 -84 0
727 84 0
-728 -29 0
728 29 0
-729 -14 0
729 14 0
-730 -87 0
730 87 0
-731 -12 0
731 12 0
-732 -90 0
732 90 0
-733 -93 0
733 93 0
-734 -96 0
734 96 0
-735 -99 0
735 99 0
-736 -4 0
736 4 0
-737 -102 0
737 102 0
-738 -10 0
738 10 0
-739 -105 0
739 105 0
-740 -7 0
740 7 0
-741 -108 0
741 108 0
-742 -39 0
742 39 0
-743 -111 0
743 111 0
-744 -114 0
744 114 0
-745 -40 0
745 40 0
-746 -35 0
746 35 0
-747 -117 0
747 117 0
-748 -41 0
748 41 0
-749 -32 0
749 32 0
-750 -120 0
750 120 0
-751 -37 0
751 37 0
-752 -123 0
752 123 0
-753 -126 0
753 126 0
-754 -38 0
754 38 0
-755 -129 0
755 129 0
-756 -16 0
756 16 0
-757 -132 0
757 132 0
-758 -135 0
758 135 0
-759 -33 0
759 33 0
-760 -138 0
760 138 0
-761 -141 0
761 141 0
-762 -144 0
762 144 0
-763 -147 0
763 147 0
-764 -150 0
764 150 0
-765 -44 0
765 44 0
-766 -153 0
766 153 0
-767 -156 0
767 156 0
-768 -30 0
768 30 0
-769 -159 0
769 159 0
-770 -162 0
770 162 0
-771 -165 0
771 165 0
-772 -168 0
772 168 0
-773 -27 0
773 27 0
-774 -171 0
774 171 0
-775 -174 0
775 174 0
-776 -47 0
776 47 0
-777 -177 0
777 177 0
-778 -180 0
778 180 0
-779 -183 0
779 183 0
-780 -3 0
780 3 0
-781 -186 0
781 186 0
-782 -36 0
782 36 0
-783 -189 0
783 189 0
-784 -192 0
784 192 0
-785 -195 0
785 195 0
-786 -198 0
786 198 0
-787 -201 0
787 201 0
-788 -31 0
788 31 0
-789 -204 0
789 204 0
-790 -207 0
790 207 0
-791 -210 0
791 210 0
-792 -213 0
792 213 0
-793 -46 0
793 46 0
-794 -216 0
794 216 0
-795 -219 0
795 219 0
-796 -222 0
796 222 0
-797 -225 0
797 225 0
-798 -228 0
798 228 0
-799 -231 0
799 231 0
-800 -234 0
800 234 0
-801 -237 0
801 237 0
-802 -240 0
802 240 0
-803 -243 0
803 243 0
-804 -45 0
804 45 0
-805 -246 0
805 246 0
-806 -248 0
806 248 0
-807 -251 0
807 251 0
-808 -254 0
808 254 0
-809 -257 0
809 257 0
-810 -260 0
810 260 0
-811 -49 0
811 49 0
-812 -263 0
812 263 0
-813 -266 0
813 266 0
-814 -269 0
814 269 0
-815 -42 0
815 42 0
-816 -272 0
816 272 0
-817 -275 0
817 275 0
-818 -278 0
818 278 0
-819 -281 0
819 281 0
-820 -284 0
820 284 0
-821 -287 0
821 287 0
-822 -290 0
822 290 0
-823 -293 0
823 293 0
-824 -296 0
824 296 0
-825 -299 0
825 299 0
-826 -34 0
826 34 0
-827 -302 0
827 302 0
-828 -305 0
828 305 0
-829 -308 0
829 308 0
-830 -311 0
830 311 0
-831 -314 0
831 314 0
-832 -1 0
832 1 0
-833 -317 0
833 317 0
-834 -320 0
834 320 0
-835 -323 0
835 323 0
-836 -8 0
836 8 0
-837 -326 0
837 326 0
-838 -328 0
838 328 0
-839 -331 0
839 331 0
-840 -334 0
840 334 0
-841 -337 0
841 337 0
-842 -340 0
842 340 0
-843 -343 0
843 343 0
-844 -346 0
844 346 0
-845 -349 0
845 349 0
-846 -352 0
846 352 0
-847 -25 0
847 25 0
-848 -355 0
848 355 0
-849 -358 0
849 358 0
-850 -361 0
850 361 0
-851 -364 0
851 364 0
-852 -367 0
852 367 0
-853 -370 0
853 370 0
-854 -373 0
854 373 0
-855 -376 0
855 376 0
-856 -379 0
856 379 0
-857 -382 0
857 382 0
-858 -385 0
858 385 0
-859 -388 0
859 388 0
-860 -391 0
860 391 0
-861 -394 0
861 394 0
-862 -397 0
862 397 0
-863 -400 0
863 400 0
-864 -403 0
864 403 0
-865 -406 0
865 406 0
-866 -409 0
866 409 0
-867 -412 0
867 412 0
-868 -415 0
868 415 0
-869 -48 0
869 48 0
-870 -418 0
870 418 0
-871 -421 0
871 421 0
-872 -424 0
872 424 0
-873 -427 0
873 427 0
-874 -50 0
874 50 0
-875 -430 0
875 430 0
-876 -433 0
876 433 0
-877 -436 0
877 436 0
-878 -439 0
878 439 0
-879 -442 0
879 442 0
-880 -445 0
880 445 0
-881 -448 0
881 448 0
-882 -451 0
882 451 0
-883 -454 0
883 454 0
-884 -457 0
884 457 0
-885 -460 0
885 460 0
-886 -463 0
886 463 0
-887 -466 0
887 466 0
-888 -469 0
888 469 0
-889 -472 0
889 472 0
-890 -475 0
890 475 0
-891 -478 0
891 478 0
-892 -481 0
892 481 0
-893 -484 0
893 484 0
-894 -486 0
894 486 0
-895 -489 0
895 489 0
-896 -492 0
896 492 0
-897 -495 0
897 495 0
-898 -498 0
898 498 0
-899 -501 0
899 501 0
-900 -504 0
900 504 0
-901 -507 0
901 507 0
-902 -43 0
902 43 0
-903 -510 0
903 510 0
-904 -513 0
904 513 0
-905 -516 0
905 516 0
-906 -519 0
906 519 0
-907 -522 0
907 522 0
-908 -525 0
908 525 0
-909 -528 0
909 528 0
-910 -531 0
910 531 0
-911 -534 0
911 534 0
-912 -537 0
912 537 0
-913 -540 0
913 540 0
-914 -543 0
914 543 0
-915 -545 0
915 545 0
-916 -548 0
916 548 0
-917 -550 0
917 550 0
-918 -553 0
918 553 0
-919 -556 0
919 556 0
-920 -559 0
920 559 0
-921 -562 0
921 562 0
-922 -565 0
922 565 0
-923 -568 0
923 568 0
-924 -571 0
924 571 0
-925 -574 0
925 574 0
-926 -577 0
926 577 0
-927 -580 0
927 580 0
-928 -583 0
928 583 0
-929 -586 0
929 586 0
-930 -589 0
930 589 0
-931 -592 0
931 592 0
-932 -595 0
932 595 0
-933 -598 0
933 598 0
-934 -601 0
934 601 0
-935 -604 0
935 604 0
-936 -607 0
936 607 0
-937 -610 0
937 610 0
-938 -613 0
938 613 0
-939 -616 0
939 616 0
-940 -619 0
940 619 0
-941 -622 0
941 622 0
-942 -625 0
942 625 0
-943 -628 0
943 628 0
-944 -631 0
944 631 0
-945 -634 0
945 634 0
-946 -637 0
946 637 0
-947 -640 0
947 640 0
-948 -643 0
948 643 0
-949 -646 0
949 646 0
-950 -649 0
950 649 0
-951 -652 0
951 652 0
-952 -655 0
952 655 0
-953 -658 0
953 658 0
-954 -661 0
954 661 0
-955 -664 0
955 664 0
-956 -667 0
956 667 0
-957 -670 0
957 670 0
-958 -673 0
958 673 0
-959 -676 0
959 676 0
-960 -679 0
960 679 0
-961 -682 0
961 682 0
-962 -685 0
962 685 0
-963 -688 0
963 688 0
-964 -691 0
964 691 0
-965 -694 0
965 694 0
-966 -697 0
966 697 0
698 0
